computational_data/solutions/ER_n40_p020_s5.sol
Optimal - objective value 12.00000000
      3 r_3                         1                       1
      4 r_4                         1                       1
     13 r_13                        1                       1
     17 r_17                        1                       1
     18 r_18                        1                       1
     26 r_26                        1                       1
     31 r_31                        1                       1
     48 b_8                         1                       1
     64 b_24                        1                       1
     65 b_25                        1                       1
     72 b_32                        1                       1
     77 b_37                        1                       1
